10	6	3.0
2 1 3 1 5 1 1 3 7 4 9 5 9 6 1
2 1 4 9 2 2 2 4 4
2 2 2 9 3 8 2 2 7 3 6
2 2 3 9 5 1 3 1 8 4 7 5 9
2 4 1 6 2 2 3 7 4 3 3 3 8 4 6 6 3
2 5 1 6 2 8 3 7 4 7 6 5 3 1 4 4 9 6 7
2 1 2 6 5 1 7 2 7 3 7 4 7 5 6
2 4 1 1 2 8 3 8 4 9 3 1 8 3 7 6 2
2 1 4 5 4 2 8 3 8 4 9 5 8
2 5 2 7 3 1 4 7 5 1 6 5 4 1 1 2 3 3 2 5 2
